(set-logic ALL)
(declare-fun var0 () String)
(assert (str.in_re var0 (re.++ (re.union (re.* (str.to_re "000")) (re.+ (str.to_re "111"))) (re.++ (re.* (re.* (str.to_re "2"))) (re.++ (re.* (re.union (str.to_re "3") (str.to_re "4"))) (re.++ (re.+ (re.+ (str.to_re "5"))) (re.++ (re.union (re.+ (str.to_re "66")) (re.+ (str.to_re "777"))) (re.++ (re.* (re.+ (str.to_re "8"))) (re.++ (re.* (re.* (str.to_re "9"))) (re.++ (re.+ (re.* (str.to_re "a"))) (re.++ (re.+ (re.union (str.to_re "bbb") (str.to_re "ccc"))) (re.++ (re.* (re.union (str.to_re "d") (str.to_re "e"))) (re.++ (re.+ (re.union (str.to_re "f") (str.to_re "gg"))) (re.++ (re.union (re.+ (str.to_re "hhh")) (re.union (str.to_re "ii") (str.to_re "jj"))) (re.++ (re.union (re.* (str.to_re "kkk")) (re.+ (str.to_re "lll"))) (re.++ (re.+ (re.* (str.to_re "mmm"))) (re.++ (re.* (re.+ (str.to_re "nnn"))) (re.++ (re.+ (re.union (str.to_re "ooo") (str.to_re "ppp"))) (re.++ (re.+ (re.union (str.to_re "qqq") (str.to_re "rr"))) (re.++ (re.* (re.* (str.to_re "s"))) (re.++ (re.union (re.* (str.to_re "ttt")) (re.* (str.to_re "uuu"))) (re.++ (re.union (re.* (str.to_re "v")) (re.* (str.to_re "ww"))) (re.++ (re.* (re.+ (str.to_re "x"))) (re.++ (re.* (re.+ (str.to_re "yy"))) (re.++ (re.union (re.+ (str.to_re "z")) (re.union (str.to_re "A") (str.to_re "B"))) (re.++ (re.* (re.+ (str.to_re "C"))) (re.++ (re.* (re.union (str.to_re "DD") (str.to_re "EE"))) (re.++ (re.+ (re.* (str.to_re "FF"))) (re.++ (re.+ (re.union (str.to_re "GG") (str.to_re "HHH"))) (re.++ (re.union (re.union (str.to_re "II") (str.to_re "JJ")) (re.+ (str.to_re "KKK"))) (re.++ (re.* (re.* (str.to_re "LL"))) (re.++ (re.union (re.union (str.to_re "MM") (str.to_re "NNN")) (re.+ (str.to_re "OOO"))) (re.++ (re.+ (re.+ (str.to_re "P"))) (re.++ (re.* (re.union (str.to_re "Q") (str.to_re "R"))) (re.++ (re.* (re.* (str.to_re "SSS"))) (re.++ (re.union (re.* (str.to_re "TTT")) (re.* (str.to_re "UU"))) (re.++ (re.union (re.union (str.to_re "VV") (str.to_re "WW")) (re.union (str.to_re "X") (str.to_re "Y"))) (re.++ (re.+ (re.+ (str.to_re "Z"))) (re.++ (re.union (re.+ (str.to_re "!")) (re.union (str.to_re """""") (str.to_re "#"))) (re.++ (re.+ (re.union (str.to_re "$") (str.to_re "%"))) (re.++ (re.union (re.+ (str.to_re "&&&")) (re.union (str.to_re "''") (str.to_re "((("))) (re.++ (re.union (re.* (str.to_re ")")) (re.* (str.to_re "*"))) (re.++ (re.union (re.* (str.to_re "++")) (re.* (str.to_re ",,,"))) (re.++ (re.union (re.+ (str.to_re "-")) (re.* (str.to_re "..."))) (re.++ (re.union (re.union (str.to_re "/") (str.to_re ":")) (re.union (str.to_re ";") (str.to_re "<"))) (re.++ (re.union (re.union (str.to_re "===") (str.to_re ">>")) (re.+ (str.to_re "??"))) (re.++ (re.+ (re.union (str.to_re "@@@") (str.to_re "[["))) (re.++ (re.+ (re.* (str.to_re "\\\\\\"))) (re.++ (re.union (re.union (str.to_re "]]]") (str.to_re "^^^")) (re.+ (str.to_re "___"))) (re.++ (re.+ (re.+ (str.to_re "```"))) (re.++ (re.union (re.+ (str.to_re "{")) (re.union (str.to_re "||") (str.to_re "}"))) (re.++ (re.* (re.* (str.to_re "~~"))) (re.++ (re.union (re.+ (str.to_re "000")) (re.* (str.to_re "11"))) (re.++ (re.+ (re.union (str.to_re "222") (str.to_re "333"))) (re.++ (re.* (re.union (str.to_re "4") (str.to_re "55"))) (re.++ (re.+ (re.union (str.to_re "6") (str.to_re "77"))) (re.++ (re.+ (re.+ (str.to_re "888"))) (re.++ (re.+ (re.+ (str.to_re "9"))) (re.++ (re.+ (re.* (str.to_re "a"))) (re.++ (re.union (re.+ (str.to_re "bb")) (re.+ (str.to_re "c"))) (re.++ (re.* (re.* (str.to_re "d"))) (re.++ (re.union (re.+ (str.to_re "e")) (re.+ (str.to_re "ff"))) (re.++ (re.union (re.+ (str.to_re "gg")) (re.* (str.to_re "hhh"))) (re.++ (re.* (re.union (str.to_re "iii") (str.to_re "jj"))) (re.++ (re.+ (re.* (str.to_re "kk"))) (re.++ (re.union (re.union (str.to_re "l") (str.to_re "m")) (re.* (str.to_re "nnn"))) (re.++ (re.* (re.union (str.to_re "oo") (str.to_re "p"))) (re.++ (re.* (re.+ (str.to_re "qqq"))) (re.++ (re.* (re.+ (str.to_re "rr"))) (re.++ (re.+ (re.+ (str.to_re "ss"))) (re.++ (re.* (re.* (str.to_re "tt"))) (re.++ (re.+ (re.+ (str.to_re "u"))) (re.++ (re.+ (re.* (str.to_re "vvv"))) (re.++ (re.* (re.union (str.to_re "www") (str.to_re "xx"))) (re.++ (re.* (re.+ (str.to_re "y"))) (re.++ (re.union (re.union (str.to_re "z") (str.to_re "A")) (re.+ (str.to_re "BB"))) (re.++ (re.+ (re.+ (str.to_re "CC"))) (re.++ (re.+ (re.union (str.to_re "D") (str.to_re "EEE"))) (re.++ (re.+ (re.* (str.to_re "FFF"))) (re.++ (re.* (re.union (str.to_re "GG") (str.to_re "H"))) (re.++ (re.* (re.+ (str.to_re "I"))) (re.++ (re.union (re.* (str.to_re "JJ")) (re.+ (str.to_re "KK"))) (re.++ (re.* (re.+ (str.to_re "LLL"))) (re.++ (re.+ (re.union (str.to_re "M") (str.to_re "N"))) (re.++ (re.+ (re.* (str.to_re "OOO"))) (re.++ (re.+ (re.+ (str.to_re "PP"))) (re.++ (re.union (re.union (str.to_re "QQQ") (str.to_re "R")) (re.* (str.to_re "SSS"))) (re.++ (re.union (re.union (str.to_re "TTT") (str.to_re "UU")) (re.+ (str.to_re "VVV"))) (re.++ (re.* (re.* (str.to_re "WWW"))) (re.++ (re.* (re.+ (str.to_re "X"))) (re.++ (re.union (re.union (str.to_re "YYY") (str.to_re "Z")) (re.union (str.to_re "!!!") (str.to_re """"""))) (re.++ (re.+ (re.+ (str.to_re "###"))) (re.++ (re.* (re.* (str.to_re "$"))) (re.++ (re.* (re.+ (str.to_re "%%"))) (re.++ (re.union (re.* (str.to_re "&&&")) (re.union (str.to_re "'''") (str.to_re "(("))) (re.++ (re.union (re.* (str.to_re "))")) (re.* (str.to_re "**"))) (re.++ (re.* (re.+ (str.to_re "+"))) (re.++ (re.union (re.union (str.to_re ",,,") (str.to_re "-")) (re.* (str.to_re ".."))) (re.++ (re.* (re.+ (str.to_re "/"))) (re.++ (re.union (re.union (str.to_re ":") (str.to_re ";;;")) (re.* (str.to_re "<<"))) (re.++ (re.* (re.union (str.to_re "==") (str.to_re ">>"))) (re.++ (re.* (re.union (str.to_re "???") (str.to_re "@@"))) (re.++ (re.union (re.union (str.to_re "[[[") (str.to_re "\\\\")) (re.* (str.to_re "]]"))) (re.++ (re.* (re.+ (str.to_re "^^^"))) (re.++ (re.* (re.* (str.to_re "___"))) (re.++ (re.+ (re.* (str.to_re "``"))) (re.++ (re.union (re.* (str.to_re "{")) (re.union (str.to_re "|") (str.to_re "}"))) (re.++ (re.+ (re.union (str.to_re "~") (str.to_re "00"))) (re.++ (re.+ (re.union (str.to_re "1") (str.to_re "222"))) (re.++ (re.union (re.union (str.to_re "33") (str.to_re "4")) (re.+ (str.to_re "555"))) (re.++ (re.* (re.* (str.to_re "666"))) (re.++ (re.+ (re.+ (str.to_re "77"))) (re.++ (re.+ (re.* (str.to_re "888"))) (re.++ (re.+ (re.* (str.to_re "9"))) (re.++ (re.* (re.+ (str.to_re "aaa"))) (re.++ (re.union (re.union (str.to_re "bb") (str.to_re "c")) (re.union (str.to_re "ddd") (str.to_re "ee"))) (re.++ (re.* (re.+ (str.to_re "f"))) (re.++ (re.* (re.+ (str.to_re "gg"))) (re.++ (re.union (re.union (str.to_re "h") (str.to_re "ii")) (re.+ (str.to_re "jjj"))) (re.++ (re.union (re.union (str.to_re "k") (str.to_re "ll")) (re.* (str.to_re "m"))) (re.++ (re.union (re.union (str.to_re "nnn") (str.to_re "oo")) (re.+ (str.to_re "p"))) (re.++ (re.+ (re.+ (str.to_re "q"))) (re.++ (re.+ (re.union (str.to_re "r") (str.to_re "s"))) (re.++ (re.union (re.* (str.to_re "tt")) (re.+ (str.to_re "uu"))) (re.++ (re.+ (re.+ (str.to_re "vvv"))) (re.++ (re.union (re.+ (str.to_re "w")) (re.union (str.to_re "x") (str.to_re "y"))) (re.++ (re.* (re.union (str.to_re "z") (str.to_re "AA"))) (re.++ (re.+ (re.union (str.to_re "BBB") (str.to_re "CC"))) (re.++ (re.+ (re.* (str.to_re "DD"))) (re.++ (re.union (re.union (str.to_re "EE") (str.to_re "FFF")) (re.* (str.to_re "GGG"))) (re.++ (re.* (re.union (str.to_re "HHH") (str.to_re "II"))) (re.++ (re.* (re.* (str.to_re "J"))) (re.++ (re.* (re.* (str.to_re "K"))) (re.++ (re.+ (re.* (str.to_re "LLL"))) (re.++ (re.* (re.* (str.to_re "MMM"))) (re.++ (re.+ (re.union (str.to_re "NN") (str.to_re "OOO"))) (re.++ (re.union (re.union (str.to_re "PPP") (str.to_re "QQ")) (re.+ (str.to_re "RRR"))) (re.++ (re.+ (re.+ (str.to_re "SSS"))) (re.++ (re.* (re.+ (str.to_re "TT"))) (re.++ (re.* (re.union (str.to_re "UU") (str.to_re "V"))) (re.++ (re.union (re.+ (str.to_re "WWW")) (re.+ (str.to_re "XXX"))) (re.++ (re.* (re.union (str.to_re "YY") (str.to_re "ZZ"))) (re.* (re.union (str.to_re "!!") (str.to_re """")))))))))))))))))))))))))))))))))))))))))))))))))))))))))))))))))))))))))))))))))))))))))))))))))))))))))))))))))))))))))))))))))))))))))))))))))
(check-sat)